(declare-const term_to_project_onto0 Real)
(declare-const |x'| Int)
(declare-const havoc Int)
(declare-const y Int)
(declare-const tmp___1 Int)
(declare-const term_to_project_onto Real)
(declare-const term_to_project_onto1 Real)
(declare-const |y'| Int)
(declare-const |tmp___1'| Int)
(declare-const x Int)
(assert (and (<= (+ (- x) 1) 0) (<= (+ (- y) 1) 0) (= (+ y (- x)) 0)
               (or (<= (+ havoc 1) 0) (<= (+ (- havoc) 1) 0))
               (= (+ |tmp___1'| (- havoc)) 0) (= (+ |y'| (- y) (- x)) 0)
               (= (+ |x'| (- y) (- x)) 0)
               (= term_to_project_onto1 (+ |x'| (- x)))
               (= term_to_project_onto0 (+ |y'| (- y)))
               (= term_to_project_onto (+ |tmp___1'| (- tmp___1)))))
(check-sat)
